c 3 - XORSAT
p cnf 40 160
39 22 40 0
-39 -22 40 0
-39 22 -40 0
39 -22 -40 0
6 28 33 0
-6 -28 33 0
-6 28 -33 0
6 -28 -33 0
26 28 36 0
-26 -28 36 0
-26 28 -36 0
26 -28 -36 0
-21 -31 -38 0
-21 31 38 0
21 -31 38 0
21 31 -38 0
4 17 18 0
-4 -17 18 0
-4 17 -18 0
4 -17 -18 0
11 18 19 0
-11 -18 19 0
-11 18 -19 0
11 -18 -19 0
-18 -35 -40 0
-18 35 40 0
18 -35 40 0
18 35 -40 0
2 3 9 0
-2 -3 9 0
-2 3 -9 0
2 -3 -9 0
-2 -10 -24 0
-2 10 24 0
2 -10 24 0
2 10 -24 0
-5 -15 -33 0
-5 15 33 0
5 -15 33 0
5 15 -33 0
-5 -14 -23 0
-5 14 23 0
5 -14 23 0
5 14 -23 0
-14 -20 -39 0
-14 20 39 0
14 -20 39 0
14 20 -39 0
-15 -26 -35 0
-15 26 35 0
15 -26 35 0
15 26 -35 0
22 25 26 0
-22 -25 26 0
-22 25 -26 0
22 -25 -26 0
-32 -37 -27 0
-32 37 27 0
32 -37 27 0
32 37 -27 0
-15 -19 -35 0
-15 19 35 0
15 -19 35 0
15 19 -35 0
21 27 34 0
-21 -27 34 0
-21 27 -34 0
21 -27 -34 0
-34 -36 -37 0
-34 36 37 0
34 -36 37 0
34 36 -37 0
-11 -21 -25 0
-11 21 25 0
11 -21 25 0
11 21 -25 0
10 12 37 0
-10 -12 37 0
-10 12 -37 0
10 -12 -37 0
10 12 27 0
-10 -12 27 0
-10 12 -27 0
10 -12 -27 0
-16 -19 -22 0
-16 19 22 0
16 -19 22 0
16 19 -22 0
-11 -20 -31 0
-11 20 31 0
11 -20 31 0
11 20 -31 0
-1 -20 -30 0
-1 20 30 0
1 -20 30 0
1 20 -30 0
4 5 17 0
-4 -5 17 0
-4 5 -17 0
4 -5 -17 0
-3 -7 -8 0
-3 7 8 0
3 -7 8 0
3 7 -8 0
-6 -34 -40 0
-6 34 40 0
6 -34 40 0
6 34 -40 0
-1 -13 -16 0
-1 13 16 0
1 -13 16 0
1 13 -16 0
7 9 31 0
-7 -9 31 0
-7 9 -31 0
7 -9 -31 0
12 24 29 0
-12 -24 29 0
-12 24 -29 0
12 -24 -29 0
-6 -8 -14 0
-6 8 14 0
6 -8 14 0
6 8 -14 0
-17 -36 -39 0
-17 36 39 0
17 -36 39 0
17 36 -39 0
4 13 29 0
-4 -13 29 0
-4 13 -29 0
4 -13 -29 0
-2 -7 -25 0
-2 7 25 0
2 -7 25 0
2 7 -25 0
-28 -32 -38 0
-28 32 38 0
28 -32 38 0
28 32 -38 0
-30 -33 -38 0
-30 33 38 0
30 -33 38 0
30 33 -38 0
3 9 23 0
-3 -9 23 0
-3 9 -23 0
3 -9 -23 0
16 29 32 0
-16 -29 32 0
-16 29 -32 0
16 -29 -32 0
-1 -13 -24 0
-1 13 24 0
1 -13 24 0
1 13 -24 0
-8 -23 -30 0
-8 23 30 0
8 -23 30 0
8 23 -30 0
